data;
param nombreJob := 6;
param nombreRessource := 3;
param duree := 1 7 2 6 3 9 4 1 5 7 6 7;
param capaciteRessource := 1 6 2 13 3 17;
param besoinRessource : 1 2 3 :=
                    1   4 2 5
                    2   2 8 10
                    3   2 6 7
                    4   3 1 9
                    5   2 1 9
                    6   1 3 10;
end;

